(declare-fun temp934_1 () (_ BitVec 64))
(declare-fun var154683 () (_ BitVec 64))
(declare-fun k!0 () Bool)
(declare-fun ARGNAME_source_NAMEEND_LEN () (_ BitVec 64))
(declare-fun ARGNAME_destination_NAMEEND_LEN () (_ BitVec 64))
(declare-fun temp934_3 () (_ BitVec 64))
(declare-fun temp934_2 () (_ BitVec 64))
(declare-fun temp934_4 () (_ BitVec 64))
(declare-fun var266826 () (_ BitVec 64))
(declare-fun var266828 () (_ BitVec 64))
(declare-fun temp934_6 () (_ BitVec 64))
(declare-fun temp934_5 () (_ BitVec 64))
(declare-fun temp934_7 () (_ BitVec 64))
(declare-fun var594506 () (_ BitVec 64))
(declare-fun var594508 () (_ BitVec 64))
(declare-fun temp934_9 () (_ BitVec 64))
(declare-fun temp934_8 () (_ BitVec 64))
(declare-fun temp934_10 () (_ BitVec 64))
(declare-fun var1053642 () (_ BitVec 64))
(declare-fun temp934_12 () (_ BitVec 64))
(declare-fun temp934_11 () (_ BitVec 64))
(declare-fun temp934_13 () (_ BitVec 64))
(declare-fun var1774538 () (_ BitVec 64))
(declare-fun temp934_14 () (_ BitVec 64))
(declare-fun var2429514 () (_ BitVec 64))
(declare-fun temp934_15 () (_ BitVec 64))
(declare-fun var3871306 () (_ BitVec 64))
(declare-fun temp934_16 () (_ BitVec 64))
(declare-fun ARGNAME_input_NAMEEND_DIM () (_ BitVec 64))
(declare-fun var154805 () (_ BitVec 64))
(declare-fun temp934_17 () (_ BitVec 64))
(declare-fun temp934_19 () (_ BitVec 64))
(declare-fun temp934_18 () (_ BitVec 64))
(declare-fun temp934_20 () (_ BitVec 64))
(declare-fun var5313098 () (_ BitVec 64))
(declare-fun var5313100 () (_ BitVec 64))
(declare-fun temp934_22 () (_ BitVec 64))
(declare-fun temp934_21 () (_ BitVec 64))
(declare-fun temp934_23 () (_ BitVec 64))
(declare-fun var5640778 () (_ BitVec 64))
(declare-fun var5640780 () (_ BitVec 64))
(declare-fun temp934_25 () (_ BitVec 64))
(declare-fun temp934_24 () (_ BitVec 64))
(declare-fun temp934_26 () (_ BitVec 64))
(declare-fun var6361674 () (_ BitVec 64))
(declare-fun var6361676 () (_ BitVec 64))
(declare-fun temp934_28 () (_ BitVec 64))
(declare-fun temp934_27 () (_ BitVec 64))
(declare-fun var7738309 () (_ BitVec 64))
(declare-fun temp934_29 () (_ BitVec 64))
(declare-fun temp934_30 () (_ BitVec 64))
(declare-fun var7803850 () (_ BitVec 64))
(declare-fun temp934_32 () (_ BitVec 64))
(declare-fun temp934_31 () (_ BitVec 64))
(declare-fun temp934_34 () (_ BitVec 64))
(declare-fun temp934_33 () (_ BitVec 64))
(declare-fun var154934 () (_ BitVec 64))
(declare-fun var8719225 () (_ BitVec 64))
(declare-fun temp934_36 () (_ BitVec 64))
(declare-fun temp934_35 () (_ BitVec 64))
(declare-fun var8785217 () (_ BitVec 64))
(declare-fun var8785218 () (_ BitVec 64))
(declare-fun temp934_37 () (_ BitVec 64))
(declare-fun temp934_38 () (_ BitVec 64))
(declare-fun var8850759 () (_ BitVec 64))
(declare-fun var8916306 () (_ BitVec 64))
(assert (= var154683
   (ite (= ARGNAME_source_NAMEEND_LEN ARGNAME_destination_NAMEEND_LEN)
        #x0000000000000001
        #x0000000000000000)))
(assert (= temp934_1 #x0000000000000001))
(assert (= var154683 temp934_1))
(assert (= temp934_3 #x0000000000000000))
(assert (= temp934_2 temp934_3))
(assert (= temp934_4 #x0000000000000005))
(assert (= var266826 temp934_4))
(assert (= var266828 var266826))
(assert (= temp934_6 #x0000000000000000))
(assert (= temp934_5 temp934_6))
(assert (= temp934_7 #x0000000000000005))
(assert (= var594506 temp934_7))
(assert (= var594508 var594506))
(assert (= temp934_9 #x0000000000000000))
(assert (= temp934_8 temp934_9))
(assert (= temp934_10 #x0000000000000000))
(assert (= var1053642 temp934_10))
(assert (= temp934_12 #x0000000000000000))
(assert (= temp934_11 temp934_12))
(assert (= temp934_13 #x0000000000000000))
(assert (= var1774538 temp934_13))
(assert (= temp934_14 #x0000000000000005))
(assert (= var2429514 temp934_14))
(assert (= temp934_15 #x0000000000000005))
(assert (= var3871306 temp934_15))
(assert (= temp934_16 #x0000000000000000))
(assert (= var154805
   (ite (= ARGNAME_input_NAMEEND_DIM temp934_16)
        #x0000000000000001
        #x0000000000000000)))
(assert (= temp934_17 #x0000000000000000))
(assert (= var154805 temp934_17))
(assert (= temp934_19 #x0000000000000000))
(assert (= temp934_18 temp934_19))
(assert (= temp934_20 #x0000000000000005))
(assert (= var5313098 temp934_20))
(assert (= var5313100 var5313098))
(assert (= temp934_22 #x0000000000000000))
(assert (= temp934_21 temp934_22))
(assert (= temp934_23 #x0000000000000005))
(assert (= var5640778 temp934_23))
(assert (= var5640780 var5640778))
(assert (= temp934_25 #x0000000000000000))
(assert (= temp934_24 temp934_25))
(assert (= temp934_26 #x0000000000000005))
(assert (= var6361674 temp934_26))
(assert (= var6361676 var6361674))
(assert (= temp934_28 #x0000000000000000))
(assert (= temp934_27 temp934_28))
(assert (= var7738309
   (ite (bvslt temp934_27 ARGNAME_source_NAMEEND_LEN)
        #x0000000000000001
        #x0000000000000000)))
(assert (= temp934_29
   (ite (= var7738309 #x0000000000000001) ARGNAME_source_NAMEEND_LEN temp934_27)))
(assert (= temp934_30 #x0000000000000000))
(assert (= var7803850 temp934_30))
(assert (= temp934_32 #xffffffffffffffff))
(assert (= temp934_31 temp934_32))
(assert (= temp934_34 #xffffffffffffffff))
(assert (= temp934_33 temp934_34))
(assert (= var154934 (bvsub ARGNAME_input_NAMEEND_DIM ARGNAME_source_NAMEEND_LEN)))
(assert (= var8719225 var154934))
(assert (= temp934_36 #x0000000000000000))
(assert (= temp934_35 temp934_36))
(assert (= var8785217 var8719225))
(assert (= var8785218
   (ite (bvslt temp934_35 var8785217) #x0000000000000001 #x0000000000000000)))
(assert (= temp934_37 (ite (= var8785218 #x0000000000000001) var8719225 temp934_35)))
(assert (= temp934_38 #x0000000000000000))
(assert (= var8850759 temp934_38))
(assert (= var8916306 var8850759))
(model-add temp934_1 () (_ BitVec 64) #x0000000000000001)
(model-add var154683 () (_ BitVec 64) #x0000000000000001)
(model-del k!0)
(model-add ARGNAME_source_NAMEEND_LEN
           ()
           (_ BitVec 64)
           (ite k!0
                ARGNAME_destination_NAMEEND_LEN
                (bvnot ARGNAME_destination_NAMEEND_LEN)))





